Gurobi Optimizer version 9.1.2 build v9.1.2rc0 (linux64)
Thread count: 36 physical cores, 72 logical processors, using up to 32 threads
Optimize a model with 12 rows, 57 columns and 590 nonzeros
Model fingerprint: 0xf32eec78
Model has 47 quadratic constraints
Coefficient statistics:
  Matrix range     [2e-05, 3e+00]
  QMatrix range    [1e+00, 1e+00]
  QLMatrix range   [1e+00, 1e+00]
  Objective range  [8e-03, 7e-01]
  Bounds range     [1e+00, 1e+00]
  RHS range        [1e+00, 1e+00]
Presolve removed 9 rows and 0 columns

Continuous model is non-convex -- solving as a MIP.

Presolve removed 9 rows and 0 columns
Presolve time: 0.00s
Presolved: 189 rows, 57 columns, 443 nonzeros
Presolved model has 47 bilinear constraint(s)
Variable types: 57 continuous, 0 integer (0 binary)

Root relaxation: objective -1.743721e+00, 44 iterations, 0.00 seconds

    Nodes    |    Current Node    |     Objective Bounds      |     Work
 Expl Unexpl |  Obj  Depth IntInf | Incumbent    BestBd   Gap | It/Node Time

     0     0   -1.74372    0   38          -   -1.74372      -     -    0s
H    0     0                       0.6147548   -1.74372   384%     -    0s
     0     0   -1.64739    0    1    0.61475   -1.64739   368%     -    0s
H    0     0                      -1.6450460   -1.64739  0.14%     -    0s
     0     0     cutoff    0        -1.64505   -1.64505  0.00%     -    0s

Cutting planes:
  RLT: 25
  BQP: 3

Explored 1 nodes (76 simplex iterations) in 0.01 seconds
Thread count was 32 (of 72 available processors)

Solution count 2: -1.64505 0.614755 
No other solutions better than -1.64505

Optimal solution found (tolerance 1.00e-04)
Best objective -1.645045978473e+00, best bound -1.645045978473e+00, gap 0.0000%

User-callback calls 78, time in user-callback 0.00 sec
Gurobi Optimizer version 9.1.2 build v9.1.2rc0 (linux64)
Thread count: 36 physical cores, 72 logical processors, using up to 32 threads
Optimize a model with 60 rows, 300 columns and 15500 nonzeros
Model fingerprint: 0x3372dbe0
Model has 250 quadratic constraints
Coefficient statistics:
  Matrix range     [1e-06, 4e+00]
  QMatrix range    [1e+00, 1e+00]
  QLMatrix range   [1e+00, 1e+00]
  Objective range  [3e-04, 1e+00]
  Bounds range     [1e+00, 1e+00]
  RHS range        [1e+00, 1e+00]
Presolve removed 12 rows and 0 columns

Continuous model is non-convex -- solving as a MIP.

Presolve removed 12 rows and 0 columns
Presolve time: 0.01s
Presolved: 1048 rows, 300 columns, 13862 nonzeros
Presolved model has 250 bilinear constraint(s)
Variable types: 300 continuous, 0 integer (0 binary)

Root relaxation: objective -2.320083e+01, 377 iterations, 0.02 seconds

    Nodes    |    Current Node    |     Objective Bounds      |     Work
 Expl Unexpl |  Obj  Depth IntInf | Incumbent    BestBd   Gap | It/Node Time

     0     0  -23.20083    0  204          -  -23.20083      -     -    0s
H    0     0                      -7.2302113  -23.20083   221%     -    0s
     0     0  -21.52172    0  148   -7.23021  -21.52172   198%     -    0s
H    0     0                     -13.3720046  -21.52172  60.9%     -    0s
     0     0  -21.31478    0  147  -13.37200  -21.31478  59.4%     -    0s
     0     0  -21.31397    0  147  -13.37200  -21.31397  59.4%     -    0s
     0     0  -21.29078    0  147  -13.37200  -21.29078  59.2%     -    0s
     0     0  -21.28911    0  138  -13.37200  -21.28911  59.2%     -    0s
     0     0  -21.28906    0  138  -13.37200  -21.28906  59.2%     -    0s
H    0     0                     -17.7865485  -21.28906  19.7%     -    0s
     0     2  -21.28906    0  138  -17.78655  -21.28906  19.7%     -    0s
*  695   651              33     -19.4246491  -20.70833  6.61%  84.2    1s
* 1554  1277              57     -19.4246512  -20.60499  6.08%  80.6    2s
* 1976  1640              48     -19.9444536  -20.60499  3.31%  74.0    2s
* 1977  1640              49     -19.9444564  -20.60499  3.31%  74.0    2s
* 2342  1785              54     -19.9568410  -20.54649  2.95%  71.1    2s
* 2935  1955              70     -20.1629545  -20.54649  1.90%  65.4    2s
* 4091   274              46     -20.1630633  -20.54649  1.90%  61.4    3s
* 4269   449              51     -20.1632438  -20.54649  1.90%  59.4    3s
* 4293   449              56     -20.1637250  -20.54649  1.90%  59.1    3s
* 4454   544              58     -20.1673298  -20.54649  1.88%  57.3    3s
* 4539   597              52     -20.1680747  -20.54649  1.88%  56.5    3s
* 4645   648              70     -20.1836213  -20.54649  1.80%  55.5    3s
* 4649   648              73     -20.1836309  -20.54649  1.80%  55.4    3s
* 4650   648              73     -20.1836310  -20.54649  1.80%  55.4    3s
* 4651   648              72     -20.1836314  -20.54649  1.80%  55.4    3s
* 5015   697              55     -20.1945171  -20.54649  1.74%  52.8    3s
* 5016   697              55     -20.1945239  -20.54649  1.74%  52.8    3s
* 5317   773              57     -20.1945271  -20.54649  1.74%  50.7    3s
* 5318   773              57     -20.1945284  -20.54649  1.74%  50.7    3s
* 5438   839              60     -20.1945310  -20.54649  1.74%  49.8    3s
* 5593   934              65     -20.1949403  -20.54649  1.74%  48.7    4s
* 5594   934              65     -20.1949588  -20.54649  1.74%  48.7    4s
* 5596   934              65     -20.1950226  -20.54649  1.74%  48.7    4s
* 5627   976              57     -20.1961923  -20.54649  1.73%  48.5    4s
* 6011  1097              70     -20.1968938  -20.48277  1.42%  46.2    4s
* 6013  1097              71     -20.1969799  -20.48277  1.42%  46.2    4s
* 6014  1097              71     -20.1969831  -20.48277  1.41%  46.2    4s
* 6299  1161              58     -20.1984351  -20.48277  1.41%  44.8    4s
* 6300  1161              58     -20.1984353  -20.48277  1.41%  44.8    4s
* 6511  1406              65     -20.2062571  -20.48277  1.37%  43.9    4s
* 6870  1440              73     -20.2099472  -20.48277  1.35%  42.2    4s
* 7143  1404              73     -20.2099478  -20.45641  1.22%  40.9    4s
* 7346  1499              66     -20.2099586  -20.45641  1.22%  40.2    4s
* 7369  1499              57     -20.2108206  -20.45641  1.22%  40.1    4s
* 7616  1460              54     -20.2109361  -20.45641  1.21%  39.3    4s
* 7804  1543              54     -20.2112152  -20.40540  0.96%  38.6    4s
* 7806  1543              55     -20.2112394  -20.40540  0.96%  38.6    4s
* 7866  1543              54     -20.2112409  -20.40540  0.96%  38.4    4s
* 7975  1561              68     -20.2112505  -20.40540  0.96%  38.1    4s
* 8068  1561              63     -20.2113326  -20.40540  0.96%  37.7    4s
* 8070  1561              62     -20.2113327  -20.40540  0.96%  37.7    4s
* 8099  1561              58     -20.2114106  -20.40540  0.96%  37.6    4s
* 8101  1561              59     -20.2114109  -20.40540  0.96%  37.6    4s
* 8348  1604              59     -20.2116724  -20.39115  0.89%  36.7    4s
* 8822  1669              59     -20.2117291  -20.39115  0.89%  35.3    4s
* 8864  1855              70     -20.2136713  -20.39115  0.88%  35.2    4s
* 8867  1855              70     -20.2136824  -20.39115  0.88%  35.2    4s
* 8868  1855              70     -20.2136833  -20.39115  0.88%  35.2    4s
* 9638  2027              66     -20.2215323  -20.37448  0.76%  33.2    4s
* 9945  1617              66     -20.2215662  -20.37448  0.76%  32.4    4s
 10264  1765  -20.23134   37   21  -20.22157  -20.37448  0.76%  31.5    5s
*10350  1765              57     -20.2243067  -20.37448  0.74%  31.4    5s
*10352  1765              58     -20.2243096  -20.37448  0.74%  31.4    5s
*11742  1003              61     -20.2244119  -20.30564  0.40%  28.1    5s
*11743  1003              61     -20.2244165  -20.30564  0.40%  28.1    5s
*11814  1003              62     -20.2245069  -20.30564  0.40%  27.9    5s
*12014   943              59     -20.2245416  -20.30564  0.40%  27.6    5s
*12126   943              54     -20.2245661  -20.30564  0.40%  27.3    5s
*12127   943              54     -20.2245661  -20.30564  0.40%  27.3    5s
*12143   943              60     -20.2248035  -20.30564  0.40%  27.3    5s
*12754   257              60     -20.2248052  -20.26141  0.18%  26.1    5s
*12786   257              60     -20.2248178  -20.26141  0.18%  26.0    5s
*12787   257              60     -20.2248180  -20.26141  0.18%  26.0    5s
*13524   345              61     -20.2249244  -20.23341  0.04%  24.8    5s
*13527   345              60     -20.2249326  -20.23341  0.04%  24.8    5s
*13602   345              63     -20.2252308  -20.23341  0.04%  24.6    5s
*13609   345              66     -20.2252353  -20.23341  0.04%  24.6    5s
*13707   345              65     -20.2252357  -20.23341  0.04%  24.5    5s
*14060   341              57     -20.2252568  -20.23341  0.04%  23.9    5s
*14126   341              56     -20.2252573  -20.23341  0.04%  23.8    5s
*14439   341              69     -20.2252616  -20.23341  0.04%  23.4    5s
*14468   363              57     -20.2252645  -20.22775  0.01%  23.3    5s
*14605   363              64     -20.2254562  -20.22775  0.01%  23.1    5s
*14607   363              65     -20.2254569  -20.22775  0.01%  23.1    5s
*14611   363              64     -20.2254570  -20.22775  0.01%  23.1    5s
*14901   532              60     -20.2255252  -20.22725  0.01%  22.7    5s
*15051   532              65     -20.2257783  -20.22720  0.01%  22.6    5s

Explored 15340 nodes (341453 simplex iterations) in 5.52 seconds
Thread count was 32 (of 72 available processors)

Solution count 10: -20.2258 -20.2255 -20.2255 ... -20.2249

Optimal solution found (tolerance 1.00e-04)
Best objective -2.022577831082e+01, best bound -2.022719645963e+01, gap 0.0070%

User-callback calls 31600, time in user-callback 0.01 sec



objective value: -20.225778310819717
objective bound: -20.227196459634083
x_opt: [0.0, 1.0, 1.0, 0.0, 0.0, 0.0, 1.0, 1.0, 0.0, 0.0, 0.26110159582555287, 0.3986641721482497, 0.0, 1.0, 1.0, 1.0, 0.0, 1.0, 1.0467657705659286e-5, 0.0, 0.0, 1.0, 1.0, 1.0, 0.0, 1.0, 1.0, 1.0, 0.0, 0.8189249275577353, 1.0, 0.7243637440332916, 0.0, 0.1999673546969297, 1.0, 1.0, 0.9996582695526072, 0.9998177666909839, 0.4997508180387517, 1.0, 0.8901155842803461, 0.11744269061183434, 1.0, 0.0, 0.0, 0.7115508197771271, 0.14863981440583277, 1.0713585255437023e-5, 7.54606283171049e-5, 1.0]
GUROBI solution time: 5.525062084197998

